20	13000	3000	1200
3963	662	566
3964	585	683
2314	510	718
3103	760	609
3182	704	798
3523	524	623
2276	626	510
4127	719	773
2101	687	569
3556	658	683
2843	629	666
2680	673	738
4730	550	781
4253	749	603
3981	511	629
4573	862	654
3879	605	733
4380	584	771
2977	536	508
3566	842	735
